numSessions = 204;
numLecturers = 50;
numDays = 5;
numSlotsPerDay = 11;
availRooms = 15;
duration = array1d(1..204,[
	2, %  session 0
	2, %  session 1
	2, %  session 2
	2, %  session 3
	2, %  session 4
	2, %  session 5
	2, %  session 6
	2, %  session 7
	2, %  session 8
	2, %  session 9
	2, %  session 10
	2, %  session 11
	2, %  session 12
	2, %  session 13
	2, %  session 14
	2, %  session 15
	2, %  session 16
	2, %  session 17
	2, %  session 18
	2, %  session 19
	2, %  session 20
	2, %  session 21
	2, %  session 22
	2, %  session 23
	2, %  session 24
	2, %  session 25
	2, %  session 26
	2, %  session 27
	2, %  session 28
	2, %  session 29
	2, %  session 30
	2, %  session 31
	2, %  session 32
	2, %  session 33
	3, %  session 34
	3, %  session 35
	3, %  session 36
	3, %  session 37
	2, %  session 38
	1, %  session 39
	2, %  session 40
	1, %  session 41
	2, %  session 42
	1, %  session 43
	2, %  session 44
	2, %  session 45
	2, %  session 46
	2, %  session 47
	2, %  session 48
	2, %  session 49
	2, %  session 50
	2, %  session 51
	2, %  session 52
	2, %  session 53
	2, %  session 54
	2, %  session 55
	2, %  session 56
	2, %  session 57
	2, %  session 58
	2, %  session 59
	2, %  session 60
	2, %  session 61
	2, %  session 62
	2, %  session 63
	2, %  session 64
	2, %  session 65
	2, %  session 66
	2, %  session 67
	2, %  session 68
	2, %  session 69
	2, %  session 70
	2, %  session 71
	2, %  session 72
	2, %  session 73
	2, %  session 74
	2, %  session 75
	2, %  session 76
	2, %  session 77
	2, %  session 78
	2, %  session 79
	2, %  session 80
	2, %  session 81
	2, %  session 82
	2, %  session 83
	2, %  session 84
	2, %  session 85
	2, %  session 86
	2, %  session 87
	2, %  session 88
	2, %  session 89
	2, %  session 90
	2, %  session 91
	2, %  session 92
	2, %  session 93
	2, %  session 94
	2, %  session 95
	2, %  session 96
	3, %  session 97
	3, %  session 98
	2, %  session 99
	2, %  session 100
	2, %  session 101
	2, %  session 102
	2, %  session 103
	2, %  session 104
	2, %  session 105
	2, %  session 106
	2, %  session 107
	2, %  session 108
	2, %  session 109
	2, %  session 110
	2, %  session 111
	2, %  session 112
	2, %  session 113
	2, %  session 114
	2, %  session 115
	3, %  session 116
	3, %  session 117
	2, %  session 118
	2, %  session 119
	2, %  session 120
	2, %  session 121
	2, %  session 122
	2, %  session 123
	2, %  session 124
	2, %  session 125
	2, %  session 126
	2, %  session 127
	2, %  session 128
	2, %  session 129
	2, %  session 130
	2, %  session 131
	2, %  session 132
	2, %  session 133
	2, %  session 134
	2, %  session 135
	2, %  session 136
	2, %  session 137
	2, %  session 138
	2, %  session 139
	2, %  session 140
	2, %  session 141
	2, %  session 142
	2, %  session 143
	2, %  session 144
	2, %  session 145
	2, %  session 146
	2, %  session 147
	2, %  session 148
	2, %  session 149
	2, %  session 150
	2, %  session 151
	2, %  session 152
	2, %  session 153
	2, %  session 154
	2, %  session 155
	2, %  session 156
	2, %  session 157
	2, %  session 158
	2, %  session 159
	4, %  session 160
	4, %  session 161
	2, %  session 162
	2, %  session 163
	2, %  session 164
	2, %  session 165
	2, %  session 166
	2, %  session 167
	2, %  session 168
	2, %  session 169
	2, %  session 170
	2, %  session 171
	2, %  session 172
	2, %  session 173
	2, %  session 174
	2, %  session 175
	2, %  session 176
	2, %  session 177
	2, %  session 178
	2, %  session 179
	2, %  session 180
	2, %  session 181
	2, %  session 182
	2, %  session 183
	4, %  session 184
	4, %  session 185
	2, %  session 186
	2, %  session 187
	2, %  session 188
	2, %  session 189
	2, %  session 190
	2, %  session 191
	2, %  session 192
	2, %  session 193
	2, %  session 194
	2, %  session 195
	2, %  session 196
	2, %  session 197
	2, %  session 198
	2, %  session 199
	2, %  session 200
	2, %  session 201
	2, %  session 202
	2, %  session 203
]);

period = array1d(1..204,[
	0, %  session 0
	0, %  session 1
	0, %  session 2
	0, %  session 3
	0, %  session 4
	0, %  session 5
	0, %  session 6
	0, %  session 7
	0, %  session 8
	0, %  session 9
	0, %  session 10
	0, %  session 11
	0, %  session 12
	0, %  session 13
	0, %  session 14
	0, %  session 15
	0, %  session 16
	0, %  session 17
	0, %  session 18
	1, %  session 19
	1, %  session 20
	1, %  session 21
	1, %  session 22
	1, %  session 23
	1, %  session 24
	1, %  session 25
	1, %  session 26
	1, %  session 27
	1, %  session 28
	1, %  session 29
	1, %  session 30
	1, %  session 31
	1, %  session 32
	1, %  session 33
	1, %  session 34
	1, %  session 35
	1, %  session 36
	1, %  session 37
	1, %  session 38
	1, %  session 39
	1, %  session 40
	1, %  session 41
	1, %  session 42
	1, %  session 43
	1, %  session 44
	1, %  session 45
	1, %  session 46
	1, %  session 47
	1, %  session 48
	1, %  session 49
	1, %  session 50
	1, %  session 51
	1, %  session 52
	1, %  session 53
	1, %  session 54
	1, %  session 55
	1, %  session 56
	2, %  session 57
	2, %  session 58
	2, %  session 59
	2, %  session 60
	2, %  session 61
	2, %  session 62
	2, %  session 63
	2, %  session 64
	2, %  session 65
	3, %  session 66
	3, %  session 67
	3, %  session 68
	3, %  session 69
	3, %  session 70
	3, %  session 71
	3, %  session 72
	3, %  session 73
	3, %  session 74
	3, %  session 75
	3, %  session 76
	3, %  session 77
	3, %  session 78
	3, %  session 79
	3, %  session 80
	4, %  session 81
	4, %  session 82
	4, %  session 83
	4, %  session 84
	4, %  session 85
	4, %  session 86
	4, %  session 87
	4, %  session 88
	4, %  session 89
	4, %  session 90
	4, %  session 91
	4, %  session 92
	4, %  session 93
	4, %  session 94
	4, %  session 95
	4, %  session 96
	4, %  session 97
	4, %  session 98
	5, %  session 99
	5, %  session 100
	5, %  session 101
	5, %  session 102
	5, %  session 103
	5, %  session 104
	5, %  session 105
	5, %  session 106
	5, %  session 107
	5, %  session 108
	5, %  session 109
	5, %  session 110
	5, %  session 111
	5, %  session 112
	5, %  session 113
	5, %  session 114
	6, %  session 115
	6, %  session 116
	6, %  session 117
	6, %  session 118
	6, %  session 119
	6, %  session 120
	6, %  session 121
	6, %  session 122
	6, %  session 123
	6, %  session 124
	6, %  session 125
	6, %  session 126
	6, %  session 127
	6, %  session 128
	6, %  session 129
	6, %  session 130
	6, %  session 131
	6, %  session 132
	6, %  session 133
	6, %  session 134
	6, %  session 135
	6, %  session 136
	6, %  session 137
	7, %  session 138
	7, %  session 139
	7, %  session 140
	7, %  session 141
	7, %  session 142
	7, %  session 143
	7, %  session 144
	7, %  session 145
	7, %  session 146
	7, %  session 147
	7, %  session 148
	7, %  session 149
	7, %  session 150
	7, %  session 151
	7, %  session 152
	7, %  session 153
	7, %  session 154
	7, %  session 155
	7, %  session 156
	7, %  session 157
	7, %  session 158
	7, %  session 159
	8, %  session 160
	8, %  session 161
	8, %  session 162
	8, %  session 163
	8, %  session 164
	8, %  session 165
	8, %  session 166
	8, %  session 167
	8, %  session 168
	8, %  session 169
	8, %  session 170
	8, %  session 171
	8, %  session 172
	8, %  session 173
	8, %  session 174
	8, %  session 175
	8, %  session 176
	8, %  session 177
	8, %  session 178
	8, %  session 179
	8, %  session 180
	8, %  session 181
	8, %  session 182
	8, %  session 183
	9, %  session 184
	9, %  session 185
	9, %  session 186
	9, %  session 187
	9, %  session 188
	9, %  session 189
	9, %  session 190
	9, %  session 191
	9, %  session 192
	9, %  session 193
	9, %  session 194
	9, %  session 195
	9, %  session 196
	9, %  session 197
	9, %  session 198
	9, %  session 199
	9, %  session 200
	9, %  session 201
	9, %  session 202
	9, %  session 203
]);

group = array1d(1..204,[
	0, %  session 0
	0, %  session 1
	6, %  session 2
	6, %  session 3
	11, %  session 4
	12, %  session 5
	13, %  session 6
	8, %  session 7
	8, %  session 8
	7, %  session 9
	7, %  session 10
	15, %  session 11
	15, %  session 12
	14, %  session 13
	14, %  session 14
	9, %  session 15
	10, %  session 16
	16, %  session 17
	16, %  session 18
	21, %  session 19
	21, %  session 20
	21, %  session 21
	22, %  session 22
	22, %  session 23
	22, %  session 24
	23, %  session 25
	23, %  session 26
	23, %  session 27
	24, %  session 28
	24, %  session 29
	24, %  session 30
	25, %  session 31
	25, %  session 32
	25, %  session 33
	36, %  session 34
	37, %  session 35
	38, %  session 36
	39, %  session 37
	40, %  session 38
	40, %  session 39
	41, %  session 40
	41, %  session 41
	42, %  session 42
	42, %  session 43
	43, %  session 44
	44, %  session 45
	45, %  session 46
	48, %  session 47
	48, %  session 48
	49, %  session 49
	49, %  session 50
	50, %  session 51
	50, %  session 52
	51, %  session 53
	51, %  session 54
	52, %  session 55
	52, %  session 56
	29, %  session 57
	29, %  session 58
	29, %  session 59
	30, %  session 60
	30, %  session 61
	30, %  session 62
	31, %  session 63
	31, %  session 64
	31, %  session 65
	59, %  session 66
	59, %  session 67
	59, %  session 68
	60, %  session 69
	60, %  session 70
	60, %  session 71
	58, %  session 72
	58, %  session 73
	58, %  session 74
	65, %  session 75
	65, %  session 76
	66, %  session 77
	66, %  session 78
	67, %  session 79
	67, %  session 80
	62, %  session 81
	62, %  session 82
	62, %  session 83
	61, %  session 84
	61, %  session 85
	61, %  session 86
	26, %  session 87
	26, %  session 88
	27, %  session 89
	27, %  session 90
	28, %  session 91
	28, %  session 92
	72, %  session 93
	72, %  session 94
	73, %  session 95
	73, %  session 96
	69, %  session 97
	68, %  session 98
	18, %  session 99
	18, %  session 100
	17, %  session 101
	17, %  session 102
	78, %  session 103
	78, %  session 104
	79, %  session 105
	79, %  session 106
	74, %  session 107
	75, %  session 108
	76, %  session 109
	77, %  session 110
	80, %  session 111
	80, %  session 112
	81, %  session 113
	81, %  session 114
	88, %  session 115
	88, %  session 116
	89, %  session 117
	89, %  session 118
	91, %  session 119
	91, %  session 120
	92, %  session 121
	92, %  session 122
	93, %  session 123
	93, %  session 124
	94, %  session 125
	94, %  session 126
	53, %  session 127
	53, %  session 128
	53, %  session 129
	19, %  session 130
	19, %  session 131
	20, %  session 132
	20, %  session 133
	47, %  session 134
	47, %  session 135
	46, %  session 136
	46, %  session 137
	99, %  session 138
	99, %  session 139
	99, %  session 140
	84, %  session 141
	84, %  session 142
	85, %  session 143
	85, %  session 144
	1, %  session 145
	1, %  session 146
	1, %  session 147
	33, %  session 148
	33, %  session 149
	32, %  session 150
	32, %  session 151
	95, %  session 152
	96, %  session 153
	97, %  session 154
	98, %  session 155
	86, %  session 156
	86, %  session 157
	87, %  session 158
	87, %  session 159
	100, %  session 160
	101, %  session 161
	3, %  session 162
	2, %  session 163
	70, %  session 164
	70, %  session 165
	71, %  session 166
	71, %  session 167
	104, %  session 168
	104, %  session 169
	105, %  session 170
	105, %  session 171
	106, %  session 172
	106, %  session 173
	83, %  session 174
	83, %  session 175
	83, %  session 176
	82, %  session 177
	82, %  session 178
	82, %  session 179
	34, %  session 180
	34, %  session 181
	35, %  session 182
	35, %  session 183
	102, %  session 184
	103, %  session 185
	64, %  session 186
	64, %  session 187
	64, %  session 188
	63, %  session 189
	63, %  session 190
	63, %  session 191
	4, %  session 192
	4, %  session 193
	5, %  session 194
	5, %  session 195
	54, %  session 196
	55, %  session 197
	56, %  session 198
	56, %  session 199
	57, %  session 200
	57, %  session 201
	90, %  session 202
	90, %  session 203
]);
teaching = array1d(1..204,[
	0, %  session 0
	0, %  session 1
	1, %  session 2
	1, %  session 3
	2, %  session 4
	2, %  session 5
	3, %  session 6
	4, %  session 7
	4, %  session 8
	1, %  session 9
	1, %  session 10
	5, %  session 11
	5, %  session 12
	4, %  session 13
	4, %  session 14
	1, %  session 15
	6, %  session 16
	5, %  session 17
	5, %  session 18
	7, %  session 19
	7, %  session 20
	7, %  session 21
	8, %  session 22
	8, %  session 23
	8, %  session 24
	9, %  session 25
	9, %  session 26
	9, %  session 27
	10, %  session 28
	10, %  session 29
	10, %  session 30
	11, %  session 31
	11, %  session 32
	11, %  session 33
	12, %  session 34
	13, %  session 35
	14, %  session 36
	15, %  session 37
	16, %  session 38
	16, %  session 39
	17, %  session 40
	17, %  session 41
	18, %  session 42
	18, %  session 43
	19, %  session 44
	20, %  session 45
	21, %  session 46
	22, %  session 47
	22, %  session 48
	23, %  session 49
	23, %  session 50
	24, %  session 51
	24, %  session 52
	25, %  session 53
	25, %  session 54
	26, %  session 55
	26, %  session 56
	8, %  session 57
	8, %  session 58
	8, %  session 59
	9, %  session 60
	9, %  session 61
	9, %  session 62
	27, %  session 63
	27, %  session 64
	27, %  session 65
	28, %  session 66
	28, %  session 67
	28, %  session 68
	29, %  session 69
	29, %  session 70
	29, %  session 71
	24, %  session 72
	24, %  session 73
	24, %  session 74
	30, %  session 75
	30, %  session 76
	31, %  session 77
	31, %  session 78
	32, %  session 79
	32, %  session 80
	33, %  session 81
	33, %  session 82
	33, %  session 83
	24, %  session 84
	24, %  session 85
	24, %  session 86
	7, %  session 87
	7, %  session 88
	29, %  session 89
	29, %  session 90
	34, %  session 91
	34, %  session 92
	35, %  session 93
	35, %  session 94
	35, %  session 95
	35, %  session 96
	36, %  session 97
	30, %  session 98
	20, %  session 99
	20, %  session 100
	5, %  session 101
	5, %  session 102
	36, %  session 103
	36, %  session 104
	37, %  session 105
	37, %  session 106
	35, %  session 107
	35, %  session 108
	35, %  session 109
	35, %  session 110
	38, %  session 111
	38, %  session 112
	39, %  session 113
	39, %  session 114
	40, %  session 115
	40, %  session 116
	40, %  session 117
	40, %  session 118
	41, %  session 119
	41, %  session 120
	42, %  session 121
	42, %  session 122
	43, %  session 123
	43, %  session 124
	43, %  session 125
	43, %  session 126
	22, %  session 127
	22, %  session 128
	22, %  session 129
	5, %  session 130
	5, %  session 131
	36, %  session 132
	36, %  session 133
	37, %  session 134
	37, %  session 135
	20, %  session 136
	20, %  session 137
	44, %  session 138
	44, %  session 139
	44, %  session 140
	39, %  session 141
	39, %  session 142
	45, %  session 143
	45, %  session 144
	0, %  session 145
	0, %  session 146
	0, %  session 147
	39, %  session 148
	39, %  session 149
	10, %  session 150
	10, %  session 151
	43, %  session 152
	43, %  session 153
	43, %  session 154
	43, %  session 155
	39, %  session 156
	39, %  session 157
	46, %  session 158
	46, %  session 159
	47, %  session 160
	47, %  session 161
	48, %  session 162
	0, %  session 163
	32, %  session 164
	32, %  session 165
	46, %  session 166
	46, %  session 167
	49, %  session 168
	49, %  session 169
	49, %  session 170
	49, %  session 171
	49, %  session 172
	49, %  session 173
	44, %  session 174
	44, %  session 175
	44, %  session 176
	38, %  session 177
	38, %  session 178
	38, %  session 179
	10, %  session 180
	10, %  session 181
	45, %  session 182
	45, %  session 183
	47, %  session 184
	47, %  session 185
	42, %  session 186
	42, %  session 187
	42, %  session 188
	29, %  session 189
	29, %  session 190
	29, %  session 191
	0, %  session 192
	0, %  session 193
	49, %  session 194
	49, %  session 195
	22, %  session 196
	38, %  session 197
	22, %  session 198
	22, %  session 199
	38, %  session 200
	38, %  session 201
	40, %  session 202
	40, %  session 203
]);

roomRequirement = array1d(1..204,[
	1, %  session 0
	1, %  session 1
	1, %  session 2
	1, %  session 3
	1, %  session 4
	1, %  session 5
	1, %  session 6
	1, %  session 7
	1, %  session 8
	1, %  session 9
	1, %  session 10
	1, %  session 11
	1, %  session 12
	1, %  session 13
	1, %  session 14
	1, %  session 15
	1, %  session 16
	1, %  session 17
	1, %  session 18
	0, %  session 19
	1, %  session 20
	1, %  session 21
	1, %  session 22
	0, %  session 23
	1, %  session 24
	1, %  session 25
	0, %  session 26
	0, %  session 27
	1, %  session 28
	1, %  session 29
	1, %  session 30
	1, %  session 31
	1, %  session 32
	0, %  session 33
	0, %  session 34
	0, %  session 35
	1, %  session 36
	1, %  session 37
	1, %  session 38
	1, %  session 39
	1, %  session 40
	1, %  session 41
	1, %  session 42
	1, %  session 43
	1, %  session 44
	1, %  session 45
	1, %  session 46
	1, %  session 47
	1, %  session 48
	1, %  session 49
	1, %  session 50
	1, %  session 51
	1, %  session 52
	1, %  session 53
	1, %  session 54
	1, %  session 55
	1, %  session 56
	0, %  session 57
	1, %  session 58
	1, %  session 59
	0, %  session 60
	1, %  session 61
	1, %  session 62
	0, %  session 63
	1, %  session 64
	1, %  session 65
	1, %  session 66
	1, %  session 67
	1, %  session 68
	1, %  session 69
	1, %  session 70
	1, %  session 71
	0, %  session 72
	1, %  session 73
	1, %  session 74
	1, %  session 75
	1, %  session 76
	1, %  session 77
	1, %  session 78
	1, %  session 79
	1, %  session 80
	1, %  session 81
	1, %  session 82
	1, %  session 83
	1, %  session 84
	1, %  session 85
	1, %  session 86
	1, %  session 87
	1, %  session 88
	1, %  session 89
	1, %  session 90
	1, %  session 91
	1, %  session 92
	1, %  session 93
	1, %  session 94
	1, %  session 95
	1, %  session 96
	1, %  session 97
	1, %  session 98
	1, %  session 99
	1, %  session 100
	1, %  session 101
	1, %  session 102
	1, %  session 103
	1, %  session 104
	1, %  session 105
	1, %  session 106
	0, %  session 107
	0, %  session 108
	0, %  session 109
	0, %  session 110
	0, %  session 111
	1, %  session 112
	1, %  session 113
	0, %  session 114
	1, %  session 115
	0, %  session 116
	0, %  session 117
	1, %  session 118
	1, %  session 119
	1, %  session 120
	1, %  session 121
	1, %  session 122
	1, %  session 123
	1, %  session 124
	1, %  session 125
	1, %  session 126
	1, %  session 127
	1, %  session 128
	1, %  session 129
	1, %  session 130
	1, %  session 131
	1, %  session 132
	1, %  session 133
	1, %  session 134
	1, %  session 135
	0, %  session 136
	0, %  session 137
	1, %  session 138
	1, %  session 139
	0, %  session 140
	1, %  session 141
	1, %  session 142
	0, %  session 143
	1  , %  session 144
	1, %  session 145
	1, %  session 146
	1, %  session 147
	1, %  session 148
	1, %  session 149
	1, %  session 150
	1, %  session 151
	0, %  session 152
	0, %  session 153
	0, %  session 154
	0, %  session 155
	1, %  session 156
	1, %  session 157
	1, %  session 158
	1, %  session 159
	0, %  session 160
	0, %  session 161
	1, %  session 162
	1, %  session 163
	1, %  session 164
	1, %  session 165
	1, %  session 166
	1, %  session 167
	1, %  session 168
	0, %  session 169
	0, %  session 170
	0, %  session 171
	0, %  session 172
	0, %  session 173
	1, %  session 174
	1, %  session 175
	1, %  session 176
	1, %  session 177
	1, %  session 178
	1, %  session 179
	0, %  session 180
	1, %  session 181
	1, %  session 182
	0, %  session 183
	0, %  session 184
	0, %  session 185
	0, %  session 186
	0, %  session 187
	0, %  session 188
	0, %  session 189
	0, %  session 190
	0, %  session 191
	1, %  session 192
	1, %  session 193
	1, %  session 194
	1, %  session 195
	1, %  session 196
	1, %  session 197
	1, %  session 198
	1, %  session 199
	1, %  session 200
	1, %  session 201
	0, %  session 202
	0, %  session 203
]);